Route #1: 17 3 44 32 9 25 55 31 39 40
Route #2: 50 18 24 49 23 56 41 42 64 61 21 48
Route #3: 45 29 5 47 36 69 71 60 70 20 37 15 57 27 52
Route #4: 13 54 19 14 59 11 66 65 7 26
Route #5: 12 72 58 10 38 53 35 8 46 34 67
Route #6: 4 30 2 74 28 62 22 43 1 73 33
Route #7: 51 16 63 6 68 75
Cost 745